
Gurobi 11.0.2 (win64) logging started Wed Aug  7 19:37:17 2024

Set parameter LogFile to value "D:\Documenti\Scuola\Laurea magistrale unibs\laurea-unibs-mkfsp\output\2024-08-07T17_25_17.381079\logs\instance02_bucket3.log"
Set parameter TimeLimit to value 100
Set parameter MIPGap to value 0
Gurobi Optimizer version 11.0.2 build v11.0.2rc0 (win64 - Windows 10.0 (19045.2))

CPU model: Intel(R) Core(TM) i5-4670 CPU @ 3.40GHz, instruction set [SSE2|AVX|AVX2]
Thread count: 4 physical cores, 4 logical processors, using up to 4 threads

Optimize a model with 1126 rows, 4850 columns and 51975 nonzeros
Model fingerprint: 0x8d57f62b
Variable types: 0 continuous, 4850 integer (4795 binary)
Coefficient statistics:
  Matrix range     [1e+00, 8e+03]
  Objective range  [6e+02, 8e+03]
  Bounds range     [1e+00, 1e+00]
  RHS range        [1e+00, 3e+05]
Presolve time: 0.06s
Presolved: 1126 rows, 4850 columns, 51975 nonzeros
Variable types: 0 continuous, 4850 integer (4795 binary)

Root relaxation: objective 2.965044e+05, 2370 iterations, 0.15 seconds (0.27 work units)

    Nodes    |    Current Node    |     Objective Bounds      |     Work
 Expl Unexpl |  Obj  Depth IntInf | Incumbent    BestBd   Gap | It/Node Time

     0     0 296504.435    0  490          - 296504.435      -     -    1s
     0     0 296436.260    0  919          - 296436.260      -     -    2s
     0     0 296283.204    0  713          - 296283.204      -     -    3s
     0     0 296283.204    0  675          - 296283.204      -     -    3s
     0     0 296188.087    0  941          - 296188.087      -     -    4s
     0     0 296188.087    0  454          - 296188.087      -     -    6s
     0     2 296188.087    0  436          - 296188.087      -     -   10s
   453   450 289567.000  120  310          - 296188.087      -   170   15s
   898   882 289567.000  222  277          - 296188.087      -   193   20s
  1208  1162 289567.000  303  245          - 296188.087      -   229   25s
  1527  1456 288098.000  406  221          - 296188.087      -   256   30s
  1740  1637 287372.000  448  238          - 296188.087      -   290   35s
  1886  1762 287372.000  482  207          - 296188.087      -   316   40s
  2056  1929 287372.000  525  230          - 296188.087      -   357   46s
  2203  2046 287372.000  556  220          - 296188.087      -   379   50s
  2451  2283 285693.938  602  225          - 296188.087      -   402   56s
  2703  2484 293170.000   72  320          - 296188.087      -   408   61s
  2911  2716 292463.000  152  233          - 296188.087      -   426   66s
  3062  2845 292463.000  191  273          - 296188.087      -   439   70s
  3259  3021 292463.000  235  226          - 296188.087      -   444   75s
  3492  3305 292265.642  271  289          - 296188.087      -   448   80s
  3817  3531 291011.000  314  247          - 296188.087      -   444   85s
  4155  3861 290954.967  348  279          - 296188.087      -   443   91s

Explored 4342 nodes (1989661 simplex iterations) in 100.02 seconds (197.46 work units)
Thread count was 4 (of 4 available processors)

Solution count 0

Time limit reached
Best objective -, best bound 2.961880000000e+05, gap -
